10
68
39
21
87
44
38
31
4
47
64
92
41
71
16
55
25
20
86
91
84
56
88
23
24
43
82
26
97
89
1
99
63
66
22
12
52
35
5
70
93
30
46
3
18
76
34
13
54
50
37
0
72
9
78
90
32
48
74
57
98
85
28
45
81
83
8
17
51
2
42
60
58
33
80
49
73
94
14
36
29
75
7
69
53
79
6
61
19
67
59
27
62
96
95
65
11
77
40
15
